(assert (forall ((pkt_0_4_6_0  Int  )(state_group_0_state_0_5_7_0  Int  )(state_group_0_state_1_6_8_0  Int  )) (let ((_n0 state_group_0_state_0_5_7_0 ))
(let ((_n1 2 ))
(let ((_n2 (ite (=  _n0  1)  _n1   _n0  ) ))
(let ((_n3 state_group_0_state_1_6_8_0 ))
(let ((_n4 false ))
(let ((_n5 (ite (=  _n0  1)  (ite  _n4  1 0)   _n3  ) ))
(let ((_n6 3 ))
(let ((_n7 (ite (=  _n5  999)  _n6   _n2  ) ))
(let ((_n8 (ite (=  _n2  2)  _n7   _n2  ) ))
(let ((_n9 true ))
(let ((_n10 (=   _n0   (ite  _n9  1 0) ) ))
(let ((_n11 (ite (=  _n0  1)  (ite  _n4  1 0)   _n0  ) ))
(let ((_n12 (=   _n11   _n1 ) ))
(let ((_n13 (ite (=  _n0  1)  _n4   _n12  ) ))
(let ((_n14 999 ))
(let ((_n15 (not  _n13 ) ))
(let ((_n16 (or   _n15   _n10 ) ))
(let ((_n17 pkt_0_4_6_0 ))
(let ((_n18 (ite  _n16   (ite  _n4  1 0)   _n17  ) ))
(let ((_n19 (-  _n18 )))
(let ((_n20 (ite  _n16   (ite  _n4  1 0)   _n3  ) ))
(let ((_n21 (+   _n20   _n19 ) ))
(let ((_n22 (=   _n21   _n14 ) ))
(let ((_n23 (not  _n22 ) ))
(let ((_n24 (not  _n16 ) ))
(let ((_n25 (and   _n24   _n23 ) ))
(let ((_n26 (or   _n25   _n16 ) ))
(let ((_n27 (not  _n26 ) ))
(let ((_n28 (ite  _n26   (ite  _n4  1 0)   _n1  ) ))
(let ((_n29 (+   _n28   (ite  _n27  1 0) ) ))
(let ((_n30 (ite  _n26   (ite  _n4  1 0)   _n29  ) ))
(let ((_n31 (ite  _n26   _n0   (ite  _n4  1 0)  ) ))
(let ((_n32 (+   _n31   _n30 ) ))
(let ((_n33 (not  _n25 ) ))
(let ((_n34 (or   _n33   _n16 ) ))
(let ((_n35 (ite  _n34   (ite  _n4  1 0)   _n1  ) ))
(let ((_n36 (ite  _n34   _n0   (ite  _n4  1 0)  ) ))
(let ((_n37 (+   _n36   _n35 ) ))
(let ((_n38 (ite (=  (ite  _n25  1 0)  1)  _n37   _n32  ) ))
(let ((_n39 (ite (=  (ite  _n13  1 0)  1)  _n38   _n0  ) ))
(let ((_n40 (ite (=  _n0  1)  _n17   (ite  _n4  1 0)  ) ))
(let ((_n41 (=   _n40   (ite  _n9  1 0) ) ))
(let ((_n42 (not  _n41 ) ))
(let ((_n43 (and   _n10   _n42 ) ))
(let ((_n44 (not  _n10 ) ))
(let ((_n45 (or   _n43   _n44 ) ))
(let ((_n46 (not  _n45 ) ))
(let ((_n47 (+   (ite  _n46  1 0)   (ite  _n46  1 0) ) ))
(let ((_n48 (ite  _n45   (ite  _n4  1 0)   _n47  ) ))
(let ((_n49 (ite  _n45   _n0   (ite  _n4  1 0)  ) ))
(let ((_n50 (+   _n49   _n48 ) ))
(let ((_n51 (and   _n43   _n10 ) ))
(let ((_n52 (ite  _n51   _n1   (ite  _n4  1 0)  ) ))
(let ((_n53 (ite  _n51   (ite  _n4  1 0)   _n0  ) ))
(let ((_n54 (+   _n53   _n52 ) ))
(let ((_n55 (ite (=  (ite  _n43  1 0)  1)  _n54   _n50  ) ))
(let ((_n56 (ite (=  (ite  _n10  1 0)  1)  _n55   _n39  ) ))
(let ((_n57 (=   _n56   _n8 ) ))
(let ((_n59 (+   _n5   (ite  _n9  1 0) ) ))
(let ((_n60 (ite (=  _n2  2)  _n59   _n5  ) ))
(let ((_n61 1000 ))
(let ((_n62 (ite  _n26   (ite  _n4  1 0)   _n61  ) ))
(let ((_n63 (ite  _n26   (ite  _n4  1 0)   _n17  ) ))
(let ((_n64 (+   _n63   _n62 ) ))
(let ((_n65 (ite  _n26   (ite  _n4  1 0)   _n64  ) ))
(let ((_n66 (ite  _n26   _n3   (ite  _n4  1 0)  ) ))
(let ((_n67 (+   _n66   _n65 ) ))
(let ((_n68 (not  _n34 ) ))
(let ((_n69 (+   _n3   (ite  _n68  1 0) ) ))
(let ((_n70 (ite (=  (ite  _n25  1 0)  1)  _n69   _n67  ) ))
(let ((_n71 (ite (=  (ite  _n13  1 0)  1)  _n70   _n3  ) ))
(let ((_n72 (ite  _n45   (ite  _n4  1 0)   _n17  ) ))
(let ((_n73 (ite  _n45   _n3   (ite  _n4  1 0)  ) ))
(let ((_n74 (+   _n73   _n72 ) ))
(let ((_n75 (ite  _n51   _n14   (ite  _n4  1 0)  ) ))
(let ((_n76 (-  _n75 )))
(let ((_n77 (ite  _n51   _n61   (ite  _n4  1 0)  ) ))
(let ((_n78 (+   _n77   _n76 ) ))
(let ((_n79 (ite  _n51   _n78   (ite  _n4  1 0)  ) ))
(let ((_n80 (ite  _n51   (ite  _n4  1 0)   _n3  ) ))
(let ((_n81 (+   _n80   _n79 ) ))
(let ((_n82 (ite (=  (ite  _n43  1 0)  1)  _n81   _n74  ) ))
(let ((_n83 (ite (=  (ite  _n10  1 0)  1)  _n82   _n71  ) ))
(let ((_n84 (=   _n83   _n60 ) ))
(implies  (and (and (>= state_group_0_state_1_6_8_0 0) (< state_group_0_state_1_6_8_0 1024 ))  (and (and (>= state_group_0_state_0_5_7_0 0) (< state_group_0_state_0_5_7_0 1024 ))  (and (>= pkt_0_4_6_0 0) (< pkt_0_4_6_0 1024 )) ) )   (and  _n57  _n84 )  )))))))))))))))))))))))))))))))))))))))))))))))))))))))))))))))))))))))))))))))))))))))
(check-sat)
(get-model)
(exit)